c Qdimacs file from skolem function generator
p cnf 368 925
c a 254 255 256 257 258 259 260 261 262 263 264 265 266 267 268 269 270 271 272 273 274 275 276 277 278 279 280 281 282 283 284 285 286 287 288 289 290 291 292 293 294 295 296 297 298 299 300 301 302 303 304 305 306 307 308 309 310 311 312 313 314 315 316 317 318 319 320 321 322 323 324 325 326 327 328 329 330 331 332 333 334 335 336 337 338 339 340 341 342 343 344 345 346 347 348 349 350 351 352 353 354 355 356 357 358 359 360 361 362 363 364 365 366 367 0
c e 193 194 195 196 197 198 199 200 201 202 203 204 205 206 207 208 209 210 211 212 213 214 215 216 217 218 219 220 221 222 223 224 225 226 227 228 229 230 231 232 233 234 235 236 237 238 239 240 241 242 243 244 245 246 247 248 249 250 251 252 253 1 2 3 4 5 6 7 8 9 10 11 12 13 14 15 16 17 18 19 20 21 22 23 24 25 26 27 28 29 30 31 32 33 34 35 36 37 38 39 40 41 42 43 44 45 46 47 48 49 50 51 52 53 54 55 56 57 58 59 60 61 62 63 64 65 66 67 68 69 70 71 72 73 74 75 76 77 78 79 80 81 82 83 84 85 86 87 88 89 90 91 92 93 94 95 96 97 98 99 100 101 102 103 104 105 106 107 108 109 110 111 112 113 114 115 116 117 118 119 120 121 122 123 124 125 126 127 128 129 130 131 132 133 134 135 136 137 138 139 140 141 142 143 144 145 146 147 148 149 150 151 152 153 154 155 156 157 158 159 160 161 162 163 164 165 166 167 168 169 170 171 172 173 174 175 176 177 178 179 180 181 182 183 184 185 186 187 188 189 190 191 192 368 0
4 309 5 -145 -179 0
4 -309 -5 -145 -179 0
-4 179 0
-4 -309 5 0
-4 145 0
-4 309 -5 0
5 -310 -6 0
5 310 -133 -139 0
-5 310 133 0
-5 -310 6 0
-5 310 139 0
6 -7 -29 0
6 21 26 -29 0
-6 29 0
-6 7 -21 0
-6 7 -26 0
7 -8 12 -15 0
-7 8 0
-7 -12 0
-7 15 0
8 9 11 0
-8 -9 0
-8 -11 0
9 -306 -10 0
9 306 308 10 0
9 -306 -308 0
9 305 308 -10 0
-9 306 -308 0
-9 -306 308 10 0
-9 -305 306 -10 0
10 -254 307 0
-10 254 0
-10 -307 0
11 -305 306 -307 0
11 -305 -306 308 0
11 -305 -306 307 0
-11 305 0
-11 306 307 0
-11 -306 -307 -308 0
12 -305 -13 0
12 305 13 0
-12 305 -13 0
-12 -305 13 0
13 -307 14 0
13 254 307 -14 0
-13 -254 -14 0
-13 307 14 0
-13 -307 -14 0
14 -306 308 0
-14 306 0
-14 -308 0
15 16 -17 19 0
15 305 -17 19 0
-15 17 0
-15 -19 0
-15 -305 -16 0
16 -306 -307 -308 0
-16 306 0
-16 307 0
-16 308 0
17 254 307 18 0
17 -254 -307 308 0
17 -254 308 -18 0
17 -254 307 -308 0
-17 254 -307 0
-17 -254 307 308 18 0
-17 -307 -308 0
-17 254 -18 0
18 305 306 0
-18 -305 0
-18 -306 0
19 305 306 0
19 305 308 -20 0
-19 -305 0
-19 -306 -308 0
-19 -306 20 0
20 254 307 0
-20 -254 0
-20 -307 0
21 -226 -22 -24 0
21 -22 24 25 0
-21 22 0
-21 24 -25 0
-21 226 -24 0
22 -9 -11 -23 0
22 -9 -19 -23 0
-22 23 0
-22 9 0
-22 11 19 0
23 -12 -15 0
-23 12 0
-23 15 0
24 297 -298 0
-24 -297 0
-24 298 0
25 -226 -281 0
25 226 281 0
-25 226 -281 0
-25 -226 281 0
26 22 25 27 0
26 -226 22 -27 0
-26 -22 0
-26 226 -27 0
-26 -25 27 0
27 -297 -28 0
-27 297 0
-27 28 0
28 -8 -23 0
-28 8 0
-28 23 0
29 240 30 -33 -54 0
29 -240 -30 -33 -54 0
-29 54 0
-29 -240 30 0
-29 33 0
-29 240 -30 0
30 -295 31 0
-30 295 0
-30 -31 0
31 -296 -32 0
-31 296 0
-31 32 0
32 -9 12 -17 -19 0
-32 19 0
-32 9 0
-32 17 0
-32 -12 0
33 244 299 -34 0
33 244 -7 -34 0
33 -244 -299 7 -34 0
-33 -244 -7 0
-33 -244 299 0
-33 34 0
-33 244 -299 7 0
34 241 -35 -52 0
34 31 -35 -52 0
-34 52 0
-34 35 0
-34 -241 -31 0
35 -211 -36 48 -49 0
35 211 -36 48 49 0
-35 -48 0
-35 211 -49 0
-35 36 0
-35 -211 49 0
36 -210 37 -45 0
36 210 37 45 0
-36 -37 0
-36 -210 45 0
-36 210 -45 0
37 260 -39 0
37 38 -39 0
37 -259 -39 0
-37 39 0
-37 259 -260 -38 0
38 292 -293 0
-38 -292 0
-38 293 0
39 303 304 -42 0
39 -303 40 -42 0
39 303 -40 -42 0
-39 42 0
-39 -303 -40 0
-39 303 -304 40 0
40 283 -41 0
40 -283 41 0
-40 -283 -41 0
-40 283 41 0
41 284 -285 0
-41 -284 0
-41 285 0
42 -43 44 0
-42 43 0
-42 -44 0
43 283 -284 0
43 -283 284 285 0
-43 -283 -284 0
-43 284 -285 0
-43 283 284 0
44 -259 -292 0
44 259 260 292 293 0
-44 259 -260 0
-44 -259 292 0
-44 292 -293 0
-44 259 -292 0
45 -301 46 0
45 -265 -46 0
-45 301 46 0
-45 265 -46 0
46 255 -274 -47 0
46 255 275 -47 0
-46 -255 0
-46 47 0
-46 274 -275 0
47 -281 -300 0
-47 281 0
-47 300 0
48 273 38 -39 0
48 -272 38 -39 0
-48 39 0
-48 -38 0
-48 272 -273 0
49 -301 50 0
49 -266 -50 0
-49 301 50 0
-49 266 -50 0
50 -276 -51 0
50 277 -51 0
-50 51 0
-50 276 -277 0
51 -255 -281 -300 0
51 -256 -281 -300 0
-51 300 0
-51 281 0
-51 255 256 0
52 -31 53 0
52 241 296 53 0
52 -241 -296 53 0
-52 -53 0
-52 241 -296 31 0
-52 -241 296 31 0
53 299 -7 25 0
53 -226 -299 -7 0
-53 7 0
-53 226 -299 0
-53 299 -25 0
54 -55 59 -63 0
54 -58 59 -63 0
-54 63 0
-54 -59 0
-54 55 58 0
55 22 28 -57 0
55 22 -28 56 0
-55 -22 0
-55 -28 -56 0
-55 28 57 0
56 -243 -297 0
56 -243 298 0
56 -242 0
56 243 297 -298 0
-56 242 243 298 0
-56 242 243 -297 0
-56 242 -243 297 -298 0
57 -242 -297 0
57 242 -243 297 -298 0
57 242 243 297 298 0
-57 -242 297 0
-57 242 -243 298 0
-57 242 -297 0
-57 243 297 -298 0
58 -242 -297 -22 0
58 242 243 297 -22 0
-58 -243 297 0
-58 242 -297 0
-58 22 0
-58 -242 297 0
59 27 32 61 0
59 -27 32 60 0
-59 -32 0
-59 27 -61 0
-59 -27 -60 0
60 227 -247 -270 0
60 227 247 270 0
-60 -227 0
-60 -247 270 0
-60 247 -270 0
61 -227 -62 0
61 282 -62 0
-61 62 0
-61 227 -282 0
62 -247 -302 0
62 247 302 0
-62 247 -302 0
-62 -247 302 0
63 -64 130 -131 0
63 -64 -130 132 0
-63 64 0
-63 -130 -132 0
-63 130 131 0
64 227 -65 0
64 -282 31 -65 0
-64 65 0
-64 -227 282 0
-64 -227 -31 0
65 32 -67 -87 0
65 66 -67 -87 0
-65 87 0
-65 67 0
-65 -32 -66 0
66 296 61 0
66 247 -269 -296 0
66 -247 269 -296 0
-66 296 -61 0
-66 -247 -269 -296 0
-66 247 269 -296 0
67 68 -75 -81 -84 0
-67 -68 0
-67 84 0
-67 81 0
-67 75 0
68 -303 -69 73 0
68 303 -69 -73 0
68 304 -69 73 0
-68 69 0
-68 -303 -73 0
-68 303 -304 73 0
69 70 -71 72 0
69 38 70 -71 0
-69 71 0
-69 -70 0
-69 -38 -72 0
70 -261 -292 0
70 261 262 292 293 0
-70 261 -262 0
-70 -261 292 0
-70 292 -293 0
-70 261 -292 0
71 286 -287 0
71 -286 287 288 0
-71 -286 -287 0
-71 287 -288 0
-71 286 287 0
72 261 -262 0
-72 -261 0
-72 262 0
73 286 -74 0
73 -286 74 0
-73 -286 -74 0
-73 286 74 0
74 287 -288 0
-74 -287 0
-74 288 0
75 73 76 78 79 0
75 -73 76 78 -79 0
-75 -76 0
-75 73 -79 0
-75 -78 0
-75 -73 79 0
76 -71 77 0
-76 71 0
-76 -77 0
77 231 -232 0
77 -231 232 233 0
-77 -231 -232 0
-77 232 -233 0
-77 231 232 0
78 -217 272 0
78 217 218 -272 0
78 218 272 -273 0
-78 217 -218 0
-78 -217 -272 0
-78 217 272 273 0
79 231 -80 0
79 -231 80 0
-79 -231 -80 0
-79 231 80 0
80 232 -233 0
-80 -232 0
-80 233 0
81 -40 77 0
81 -71 82 0
81 -40 -71 0
81 77 82 0
-81 40 -82 0
-81 71 -77 0
82 228 -83 0
82 -228 83 0
-82 -228 -83 0
-82 228 83 0
83 229 -230 0
-83 -229 0
-83 230 0
84 -276 85 0
84 221 85 -86 0
-84 -85 0
-84 -221 276 0
-84 276 86 0
85 -194 255 0
85 194 -195 256 0
85 194 -255 0
85 195 255 -256 0
-85 -194 -255 0
-85 194 -195 255 -256 0
-85 194 195 255 256 0
86 -222 -277 0
86 222 277 0
-86 222 -277 0
-86 -222 277 0
87 43 88 -89 -110 0
87 -43 -88 -89 -110 0
-87 110 0
-87 -43 88 0
-87 89 0
-87 43 -88 0
88 228 -229 0
88 -228 229 230 0
-88 -228 -229 0
-88 229 -230 0
-88 228 229 0
89 -90 -99 -102 -105 0
-89 105 0
-89 90 0
-89 102 0
-89 99 0
90 -91 96 -97 -98 0
90 -91 96 97 98 0
-90 -96 0
-90 97 -98 0
-90 91 0
-90 -97 98 0
91 92 93 94 -95 0
91 -92 -93 94 -95 0
-91 -94 0
-91 92 -93 0
-91 95 0
-91 -92 93 0
92 223 -224 0
-92 -223 0
-92 224 0
93 278 -279 0
-93 -278 0
-93 279 0
94 214 -269 0
-94 -214 0
-94 269 0
95 -219 -309 0
95 274 -309 0
-95 309 0
-95 219 -274 0
96 -237 292 0
96 237 238 -292 0
96 238 292 -293 0
-96 237 -238 0
-96 -237 -292 0
-96 237 292 293 0
97 303 304 0
-97 -303 0
-97 -304 0
98 248 249 0
-98 -248 0
-98 -249 0
99 100 -101 0
99 202 203 -101 0
-99 101 0
-99 -203 -100 0
-99 -202 -100 0
100 259 260 0
-100 -259 0
-100 -260 0
101 -202 -270 0
101 215 259 0
101 259 -270 0
101 -202 215 0
-101 -215 270 0
-101 202 -259 0
102 103 104 0
102 263 -264 103 0
-102 -103 0
-102 -263 -104 0
-102 264 -104 0
103 -204 261 262 0
103 -205 261 262 0
-103 -262 0
-103 -261 0
-103 204 205 0
104 208 -209 0
-104 -208 0
-104 209 0
105 248 303 -106 -107 0
105 -248 -303 -106 -107 0
-105 107 0
-105 -248 303 0
-105 106 0
-105 248 -303 0
106 -204 -269 0
106 214 261 0
106 261 -269 0
106 -204 214 0
-106 -214 269 0
-106 204 -261 0
107 239 294 108 109 0
107 -239 -294 108 109 0
-107 -108 0
-107 -239 294 0
-107 -109 0
-107 239 -294 0
108 221 -276 0
-108 -221 0
-108 276 0
109 215 -270 0
-109 -215 0
-109 270 0
110 -111 -118 -127 129 0
-110 127 0
-110 -129 0
-110 111 0
-110 118 0
111 112 113 -114 117 0
111 -112 -113 -114 117 0
-111 -117 0
-111 -112 113 0
-111 114 0
-111 112 -113 0
112 -283 -284 0
112 -283 -285 0
-112 283 0
-112 284 285 0
113 -228 -229 0
113 -228 -230 0
-113 228 0
-113 229 230 0
114 115 116 -82 0
114 -115 -116 -82 0
114 40 -115 -116 0
114 40 115 116 0
-114 -115 116 0
-114 115 -116 0
-114 -40 82 0
115 -286 -287 0
115 -286 -288 0
-115 286 0
-115 287 288 0
116 -231 -232 0
116 -231 -233 0
-116 231 0
-116 232 233 0
117 -219 274 0
117 220 274 -275 0
117 -220 274 275 0
-117 -274 0
-117 219 -220 -275 0
-117 219 220 275 0
118 -119 -122 125 126 0
-118 122 0
-118 -126 0
-118 119 0
-118 -125 0
119 223 278 120 -121 0
119 -223 -278 120 -121 0
-119 -120 0
-119 223 -278 0
-119 121 0
-119 -223 278 0
120 225 -280 0
120 -225 280 0
-120 -225 -280 0
-120 225 280 0
121 -213 234 -268 289 0
121 213 -234 268 -289 0
121 213 234 268 289 0
121 -213 -234 -268 -289 0
-121 -213 268 0
-121 213 -268 0
-121 234 -289 0
-121 -234 289 0
122 218 124 0
122 -217 124 0
122 -123 124 0
-122 -124 0
-122 217 -218 123 0
123 272 -273 0
-123 -272 0
-123 273 0
124 203 259 -260 0
124 -202 259 -260 0
-124 260 0
-124 -259 0
-124 202 -203 0
125 237 -238 38 0
-125 -237 0
-125 238 0
-125 -38 0
126 205 261 -262 0
126 -204 261 -262 0
-126 262 0
-126 -261 0
-126 204 -205 0
127 -245 -300 -128 0
127 245 300 -128 0
-127 128 0
-127 -245 300 0
-127 245 -300 0
128 -212 246 -267 301 0
128 212 -246 267 -301 0
128 212 246 267 301 0
128 -212 -246 -267 -301 0
-128 -212 267 0
-128 212 -267 0
-128 246 -301 0
-128 -246 301 0
129 -208 263 0
129 208 209 -263 0
129 209 263 -264 0
-129 208 -209 0
-129 -208 -263 0
-129 208 263 264 0
130 -282 297 -298 -22 0
-130 22 0
-130 282 0
-130 298 0
-130 -297 0
131 -235 -290 0
131 235 -236 290 -291 0
131 235 236 290 291 0
-131 -235 290 0
-131 235 -236 291 0
-131 235 -290 0
-131 236 290 -291 0
132 -235 263 0
132 235 -236 264 0
132 235 -263 0
132 236 263 -264 0
-132 -235 -263 0
-132 235 -236 263 -264 0
-132 235 236 263 264 0
133 79 82 -134 -135 0
-133 -79 0
-133 135 0
-133 134 0
-133 -82 0
134 235 -246 -247 0
134 -237 246 247 0
134 235 246 247 0
134 -237 -246 -247 0
-134 246 -247 0
-134 -246 247 0
-134 -235 237 0
135 -136 -137 -138 -98 0
-135 98 0
-135 136 0
-135 138 0
-135 137 0
136 242 243 0
-136 -242 0
-136 -243 0
137 231 232 0
-137 -231 0
-137 -232 0
138 228 229 0
-138 -228 0
-138 -229 0
139 140 -141 -142 -143 0
-139 -140 0
-139 143 0
-139 142 0
-139 141 0
140 235 -237 0
140 235 -236 238 0
140 235 236 -238 0
-140 -235 0
-140 236 237 238 0
-140 -236 237 -238 0
141 223 224 225 226 0
-141 -226 0
-141 -225 0
-141 -223 0
-141 -224 0
142 219 220 221 222 0
-142 -222 0
-142 -221 0
-142 -219 0
-142 -220 0
143 241 244 245 -144 0
-143 144 0
-143 -245 0
-143 -241 0
-143 -244 0
144 227 234 239 240 0
-144 -240 0
-144 -239 0
-144 -227 0
-144 -234 0
145 -146 -161 -168 -173 0
-145 173 0
-145 146 0
-145 168 0
-145 161 0
146 -147 -151 -154 -158 0
-146 158 0
-146 147 0
-146 154 0
-146 151 0
147 229 284 -148 -150 0
147 -229 -284 -148 -150 0
-147 150 0
-147 -229 284 0
-147 148 0
-147 229 -284 0
148 -251 -306 -149 0
148 251 306 -149 0
-148 149 0
-148 -251 306 0
-148 251 -306 0
149 -232 -273 0
149 218 287 0
149 218 -232 0
149 -273 287 0
-149 -218 273 0
-149 232 -287 0
150 -238 -310 0
150 293 -310 0
-150 310 0
-150 238 -293 0
151 228 283 -152 -153 0
151 -228 -283 -152 -153 0
-151 153 0
-151 -228 283 0
-151 152 0
-151 228 -283 0
152 -196 203 -257 260 0
152 196 -203 257 -260 0
152 196 203 257 260 0
152 -196 -203 -257 -260 0
-152 -196 257 0
-152 196 -257 0
-152 203 -260 0
-152 -203 260 0
153 -230 -287 0
153 232 285 0
153 285 -287 0
153 -230 232 0
-153 -232 287 0
-153 230 -285 0
154 205 262 -155 -156 0
154 -205 -262 -155 -156 0
-154 156 0
-154 -205 262 0
-154 155 0
-154 205 -262 0
155 -217 -272 0
155 217 272 0
-155 217 -272 0
-155 -217 272 0
156 -194 -255 -157 0
156 194 255 -157 0
-156 157 0
-156 -194 255 0
-156 194 -255 0
157 -241 -296 0
157 241 296 0
-157 241 -296 0
-157 -241 296 0
158 236 291 -159 -160 0
158 -236 -291 -159 -160 0
-158 160 0
-158 -236 291 0
-158 159 0
-158 236 -291 0
159 -195 -256 0
159 195 256 0
-159 195 -256 0
-159 -195 256 0
160 -211 -266 -86 0
160 211 266 -86 0
-160 86 0
-160 -211 266 0
-160 211 -266 0
161 -162 -163 -166 -167 0
-161 167 0
-161 162 0
-161 166 0
-161 163 0
162 -197 -258 308 0
162 197 258 308 0
162 197 -253 258 0
162 -197 -253 -258 0
-162 -197 258 0
-162 197 -258 0
-162 253 -308 0
163 209 264 164 165 0
163 -209 -264 164 165 0
-163 -164 0
-163 -209 264 0
-163 -165 0
-163 209 -264 0
164 -240 295 0
-164 240 0
-164 -295 0
165 -253 308 0
-165 253 0
-165 -308 0
166 230 249 0
166 -285 -304 0
166 230 -304 0
166 249 -285 0
-166 -230 285 0
-166 -249 304 0
167 -240 273 0
167 -218 295 0
167 -218 -240 0
167 273 295 0
-167 240 -295 0
-167 218 -273 0
168 -169 -171 -172 0
-168 169 0
-168 171 0
-168 172 0
169 227 282 94 170 0
169 -227 -282 94 170 0
-169 -94 0
-169 -227 282 0
-169 -170 0
-169 227 -282 0
170 219 -274 0
-170 -219 0
-170 274 0
171 238 250 0
171 -293 -305 0
171 238 -305 0
171 250 -293 0
-171 -238 293 0
-171 -250 305 0
172 -249 -261 0
172 204 304 0
172 204 -249 0
172 -261 304 0
-172 -204 261 0
-172 249 -304 0
173 -174 -177 -178 0
-173 174 0
-173 177 0
-173 178 0
174 231 286 175 176 0
174 -231 -286 175 176 0
-174 -175 0
-174 -231 286 0
-174 -176 0
-174 231 -286 0
175 216 -271 0
-175 -216 0
-175 271 0
176 250 -305 0
-176 -250 0
-176 305 0
177 202 221 0
177 -259 -276 0
177 202 -276 0
177 221 -259 0
-177 -202 259 0
-177 -221 276 0
178 216 219 0
178 -271 -274 0
178 216 -274 0
178 219 -271 0
-178 -216 271 0
-178 -219 274 0
179 -119 -127 -180 -181 0
-179 181 0
-179 119 0
-179 180 0
-179 127 0
180 247 302 -25 -101 0
180 -247 -302 -25 -101 0
-180 101 0
-180 -247 302 0
-180 25 0
-180 247 -302 0
181 -105 -182 -189 -191 0
-181 191 0
-181 105 0
-181 189 0
-181 182 0
182 -183 -184 -185 -186 0
-182 186 0
-182 183 0
-182 185 0
-182 184 0
183 -244 -299 0
183 244 299 0
-183 244 -299 0
-183 -244 299 0
184 -208 -263 0
184 208 263 0
-184 208 -263 0
-184 -208 263 0
185 -193 243 -254 298 0
185 193 -243 254 -298 0
185 193 243 254 298 0
185 -193 -243 -254 -298 0
-185 -193 254 0
-185 193 -254 0
-185 243 -298 0
-185 -243 298 0
186 224 279 -187 -188 0
186 -224 -279 -187 -188 0
-186 188 0
-186 -224 279 0
-186 187 0
-186 224 -279 0
187 -235 -290 0
187 235 290 0
-187 235 -290 0
-187 -235 290 0
188 -233 237 -288 292 0
188 233 -237 288 -292 0
188 233 237 288 292 0
188 -233 -237 -288 -292 0
-188 -233 288 0
-188 233 -288 0
-188 237 -292 0
-188 -237 292 0
189 -252 -307 -190 0
189 252 307 -190 0
-189 190 0
-189 -252 307 0
-189 252 -307 0
190 -220 -275 0
190 220 275 0
-190 220 -275 0
-190 -220 275 0
191 -210 -265 192 0
191 210 265 192 0
-191 -192 0
-191 -210 265 0
-191 210 -265 0
192 242 -297 0
192 -242 297 0
-192 -242 -297 0
-192 242 297 0
368 0
2 4 0
-2 -4 0
3 4 0
-3 -4 0
3 0

